c Generated map
c Size: 15 * 15, weights in range: 1 to 10, walls: True, with ratio 0.05
c dim 1 of 4
c
p sp 225 379
c graph contains 225 nodes and 379 arcs
c
a 1 16 4
a 16 1 4
a 1 2 7
a 2 1 7
a 2 17 10
a 17 2 10
a 2 3 4
a 3 2 4
a 3 18 4
a 18 3 4
a 3 4 4
a 4 3 4
a 4 19 10
a 19 4 10
a 4 5 10
a 5 4 10
a 5 20 9
a 20 5 9
a 5 6 8
a 6 5 8
a 6 21 8
a 21 6 8
a 6 7 1
a 7 6 1
a 7 22 1
a 22 7 1
a 7 8 2
a 8 7 2
a 8 23 8
a 23 8 8
a 8 9 5
a 9 8 5
a 9 24 2
a 24 9 2
a 9 10 3
a 10 9 3
a 10 25 7
a 25 10 7
a 10 11 3
a 11 10 3
a 11 26 5
a 26 11 5
a 11 12 8
a 12 11 8
a 12 27 2
a 27 12 2
a 12 13 9
a 13 12 9
a 13 28 3
a 28 13 3
a 13 14 8
a 14 13 8
a 14 29 2
a 29 14 2
a 14 15 6
a 15 14 6
a 15 30 1
a 30 15 1
a 16 31 10
a 31 16 10
a 16 17 2
a 17 16 2
a 17 32 2
a 32 17 2
a 17 18 9
a 18 17 9
a 18 33 8
a 33 18 8
a 18 19 2
a 19 18 2
a 19 34 8
a 34 19 8
a 19 20 1
a 20 19 1
a 20 35 9
a 35 20 9
a 20 21 3
a 21 20 3
a 21 36 8
a 36 21 8
a 21 22 2
a 22 21 2
a 22 37 7
a 37 22 7
a 22 23 10
a 23 22 10
a 23 38 2
a 38 23 2
a 23 24 1
a 24 23 1
a 24 39 5
a 39 24 5
a 24 25 8
a 25 24 8
a 25 40 10
a 40 25 10
a 25 26 10
a 26 25 10
a 26 41 8
a 41 26 8
a 26 27 9
a 27 26 9
a 27 42 8
a 42 27 8
a 27 28 1
a 28 27 1
a 28 43 2
a 43 28 2
a 28 29 3
a 29 28 3
a 29 44 3
a 44 29 3
a 29 30 10
a 30 29 10
a 30 45 10
a 45 30 10
a 31 46 1
a 46 31 1
a 31 32 5
a 32 31 5
a 32 47 9
a 47 32 9
a 32 33 5
a 33 32 5
a 33 48 1
a 48 33 1
a 33 34 10
a 34 33 10
a 34 49 1
a 49 34 1
a 34 35 9
a 35 34 9
a 35 50 8
a 50 35 8
a 35 36 4
a 36 35 4
a 36 51 8
a 51 36 8
a 36 37 5
a 37 36 5
a 37 52 4
a 52 37 4
a 37 38 3
a 38 37 3
a 38 53 8
a 53 38 8
a 38 39 5
a 39 38 5
a 39 54 2
a 54 39 2
a 39 40 4
a 40 39 4
a 40 55 8
a 55 40 8
a 40 41 5
a 41 40 5
a 41 56 6
a 56 41 6
a 41 42 2
a 42 41 2
a 42 57 7
a 57 42 7
a 42 43 4
a 43 42 4
a 43 58 3
a 58 43 3
a 43 44 2
a 44 43 2
a 44 59 6
a 59 44 6
a 44 45 9
a 45 44 9
a 45 60 5
a 60 45 5
a 46 61 7
a 61 46 7
a 46 47 6
a 47 46 6
a 47 62 9
a 62 47 9
a 47 48 4
a 48 47 4
a 48 63 9
a 63 48 9
a 48 49 3
a 49 48 3
a 49 50 3
a 50 49 3
a 50 65 3
a 65 50 3
a 50 51 3
a 51 50 3
a 51 66 5
a 66 51 5
a 51 52 3
a 52 51 3
a 52 67 3
a 67 52 3
a 52 53 2
a 53 52 2
a 53 68 8
a 68 53 8
a 53 54 8
a 54 53 8
a 54 69 3
a 69 54 3
a 54 55 5
a 55 54 5
a 55 70 5
a 70 55 5
a 55 56 10
a 56 55 10
a 56 71 4
a 71 56 4
a 56 57 1
a 57 56 1
a 57 72 5
a 72 57 5
a 57 58 4
a 58 57 4
a 58 73 3
a 73 58 3
a 58 59 8
a 59 58 8
a 59 74 6
a 74 59 6
a 59 60 1
a 60 59 1
a 60 75 2
a 75 60 2
a 61 76 7
a 76 61 7
a 61 62 2
a 62 61 2
a 62 77 4
a 77 62 4
a 62 63 9
a 63 62 9
a 65 66 2
a 66 65 2
a 66 81 3
a 81 66 3
a 66 67 7
a 67 66 7
a 67 82 1
a 82 67 1
a 67 68 2
a 68 67 2
a 68 83 7
a 83 68 7
a 68 69 6
a 69 68 6
a 69 84 2
a 84 69 2
a 69 70 5
a 70 69 5
a 70 85 6
a 85 70 6
a 70 71 3
a 71 70 3
a 71 86 4
a 86 71 4
a 71 72 3
a 72 71 3
a 72 87 10
a 87 72 10
a 72 73 9
a 73 72 9
a 73 88 9
a 88 73 9
a 73 74 8
a 74 73 8
a 74 75 5
a 75 74 5
a 75 90 5
a 90 75 5
a 76 77 1
a 77 76 1
a 77 92 10
a 92 77 10
a 79 94 8
a 94 79 8
a 81 96 8
a 96 81 8
a 81 82 6
a 82 81 6
a 82 97 5
a 97 82 5
a 82 83 7
a 83 82 7
a 83 98 9
a 98 83 9
a 83 84 3
a 84 83 3
a 84 99 8
a 99 84 8
a 84 85 2
a 85 84 2
a 85 100 7
a 100 85 7
a 85 86 8
a 86 85 8
a 86 101 2
a 101 86 2
a 86 87 9
a 87 86 9
a 87 102 3
a 102 87 3
a 87 88 6
a 88 87 6
a 88 103 4
a 103 88 4
a 90 105 6
a 105 90 6
a 92 107 2
a 107 92 2
a 92 93 1
a 93 92 1
a 93 108 3
a 108 93 3
a 93 94 2
a 94 93 2
a 94 109 9
a 109 94 9
a 94 95 7
a 95 94 7
a 95 110 9
a 110 95 9
a 95 96 9
a 96 95 9
a 96 111 4
a 111 96 4
a 96 97 10
a 97 96 10
a 97 112 4
a 112 97 4
a 97 98 6
a 98 97 6
a 98 113 2
a 113 98 2
a 98 99 9
a 99 98 9
a 99 114 7
a 114 99 7
a 99 100 6
a 100 99 6
a 100 115 2
a 115 100 2
a 100 101 7
a 101 100 7
a 101 116 6
a 116 101 6
a 101 102 5
a 102 101 5
a 102 117 5
a 117 102 5
a 102 103 1
a 103 102 1
a 103 118 3
a 118 103 3
a 103 104 5
a 104 103 5
a 104 119 4
a 119 104 4
a 104 105 9
a 105 104 9
a 106 121 5
a 121 106 5
a 106 107 7
a 107 106 7
a 107 122 2
a 122 107 2
a 107 108 8
a 108 107 8
a 108 123 2
a 123 108 2
a 108 109 7
a 109 108 7
a 109 124 8
a 124 109 8
a 109 110 7
a 110 109 7
a 110 125 1
a 125 110 1
a 110 111 9
a 111 110 9
a 111 126 4
a 126 111 4
a 111 112 9
a 112 111 9
a 112 127 1
a 127 112 1
a 112 113 10
a 113 112 10
a 113 128 4
a 128 113 4
a 113 114 8
a 114 113 8
a 114 115 3
a 115 114 3
a 115 130 2
a 130 115 2
a 115 116 8
a 116 115 8
a 116 131 4
a 131 116 4
a 116 117 7
a 117 116 7
a 117 132 2
a 132 117 2
a 117 118 2
a 118 117 2
a 118 133 1
a 133 118 1
a 118 119 7
a 119 118 7
a 119 134 8
a 134 119 8
a 121 136 6
a 136 121 6
a 121 122 5
a 122 121 5
a 122 137 7
a 137 122 7
a 122 123 6
a 123 122 6
a 123 138 6
a 138 123 6
a 123 124 4
a 124 123 4
a 124 139 1
a 139 124 1
a 124 125 6
a 125 124 6
a 125 140 2
a 140 125 2
a 125 126 9
a 126 125 9
a 126 141 2
a 141 126 2
a 126 127 10
a 127 126 10
a 127 142 5
a 142 127 5
a 127 128 5
a 128 127 5
a 128 143 1
a 143 128 1
a 130 145 5
a 145 130 5
a 130 131 4
a 131 130 4
a 131 146 4
a 146 131 4
a 131 132 2
a 132 131 2
a 132 147 1
a 147 132 1
a 132 133 1
a 133 132 1
a 133 148 9
a 148 133 9
a 133 134 1
a 134 133 1
a 134 149 7
a 149 134 7
a 134 135 6
a 135 134 6
a 135 150 6
a 150 135 6
a 136 151 8
a 151 136 8
a 136 137 8
a 137 136 8
a 137 152 10
a 152 137 10
a 137 138 2
a 138 137 2
a 138 153 5
a 153 138 5
a 138 139 4
a 139 138 4
a 139 154 4
a 154 139 4
a 139 140 3
a 140 139 3
a 140 155 9
a 155 140 9
a 140 141 1
a 141 140 1
a 141 156 8
a 156 141 8
a 141 142 10
a 142 141 10
a 142 157 8
a 157 142 8
a 142 143 8
a 143 142 8
a 143 158 7
a 158 143 7
a 143 144 4
a 144 143 4
a 144 159 10
a 159 144 10
a 144 145 2
a 145 144 2
a 145 160 5
a 160 145 5
a 145 146 8
a 146 145 8
a 146 147 5
a 147 146 5
a 147 162 10
a 162 147 10
a 147 148 8
a 148 147 8
a 148 163 10
a 163 148 10
a 148 149 6
a 149 148 6
a 149 164 8
a 164 149 8
a 149 150 2
a 150 149 2
a 150 165 3
a 165 150 3
a 151 166 2
a 166 151 2
a 151 152 6
a 152 151 6
a 152 167 10
a 167 152 10
a 152 153 2
a 153 152 2
a 153 168 1
a 168 153 1
a 153 154 3
a 154 153 3
a 154 169 2
a 169 154 2
a 154 155 10
a 155 154 10
a 155 170 9
a 170 155 9
a 155 156 1
a 156 155 1
a 156 171 2
a 171 156 2
a 156 157 2
a 157 156 2
a 157 172 1
a 172 157 1
a 157 158 6
a 158 157 6
a 158 173 2
a 173 158 2
a 158 159 3
a 159 158 3
a 159 174 10
a 174 159 10
a 159 160 5
a 160 159 5
a 160 175 7
a 175 160 7
a 162 177 3
a 177 162 3
a 162 163 5
a 163 162 5
a 163 178 4
a 178 163 4
a 163 164 9
a 164 163 9
a 164 179 9
a 179 164 9
a 164 165 5
a 165 164 5
a 165 180 5
a 180 165 5
a 166 181 5
a 181 166 5
a 166 167 10
a 167 166 10
a 167 182 8
a 182 167 8
a 167 168 6
a 168 167 6
a 168 183 2
a 183 168 2
a 168 169 9
a 169 168 9
a 169 184 2
a 184 169 2
a 169 170 2
a 170 169 2
a 170 185 8
a 185 170 8
a 170 171 9
a 171 170 9
a 171 186 5
a 186 171 5
a 171 172 1
a 172 171 1
a 172 187 10
a 187 172 10
a 172 173 6
a 173 172 6
a 173 188 10
a 188 173 10
a 173 174 7
a 174 173 7
a 174 189 8
a 189 174 8
a 174 175 5
a 175 174 5
a 175 190 3
a 190 175 3
a 175 176 9
a 176 175 9
a 176 191 8
a 191 176 8
a 176 177 8
a 177 176 8
a 177 178 9
a 178 177 9
a 178 193 7
a 193 178 7
a 178 179 5
a 179 178 5
a 179 180 3
a 180 179 3
a 180 195 8
a 195 180 8
a 181 196 10
a 196 181 10
a 181 182 7
a 182 181 7
a 182 197 5
a 197 182 5
a 182 183 2
a 183 182 2
a 183 198 9
a 198 183 9
a 183 184 9
a 184 183 9
a 184 199 9
a 199 184 9
a 184 185 4
a 185 184 4
a 185 200 2
a 200 185 2
a 185 186 4
a 186 185 4
a 186 201 9
a 201 186 9
a 186 187 7
a 187 186 7
a 187 202 6
a 202 187 6
a 187 188 7
a 188 187 7
a 188 203 6
a 203 188 6
a 188 189 2
a 189 188 2
a 189 204 10
a 204 189 10
a 189 190 1
a 190 189 1
a 190 205 1
a 205 190 1
a 190 191 5
a 191 190 5
a 191 206 5
a 206 191 5
a 193 208 2
a 208 193 2
a 195 210 10
a 210 195 10
a 196 211 4
a 211 196 4
a 196 197 7
a 197 196 7
a 197 212 4
a 212 197 4
a 197 198 3
a 198 197 3
a 198 213 6
a 213 198 6
a 198 199 8
a 199 198 8
a 199 214 8
a 214 199 8
a 199 200 6
a 200 199 6
a 200 215 10
a 215 200 10
a 200 201 10
a 201 200 10
a 201 216 3
a 216 201 3
a 201 202 5
a 202 201 5
a 202 217 6
a 217 202 6
a 202 203 7
a 203 202 7
a 203 218 4
a 218 203 4
a 203 204 4
a 204 203 4
a 204 219 2
a 219 204 2
a 204 205 6
a 205 204 6
a 205 220 7
a 220 205 7
a 205 206 6
a 206 205 6
a 206 221 4
a 221 206 4
a 206 207 7
a 207 206 7
a 207 208 3
a 208 207 3
a 208 223 5
a 223 208 5
a 208 209 9
a 209 208 9
a 209 224 10
a 224 209 10
a 209 210 1
a 210 209 1
a 210 225 4
a 225 210 4
a 211 212 4
a 212 211 4
a 212 213 3
a 213 212 3
a 213 214 6
a 214 213 6
a 214 215 10
a 215 214 10
a 215 216 2
a 216 215 2
a 216 217 8
a 217 216 8
a 217 218 7
a 218 217 7
a 218 219 9
a 219 218 9
a 219 220 6
a 220 219 6
a 220 221 3
a 221 220 3
a 223 224 4
a 224 223 4
a 224 225 4
a 225 224 4
